SCIP Status        : solving was interrupted [time limit reached]
Total Time         :    3600.57
  solving          :    3600.57
  presolving       :       0.01 (included in solving)
  reading          :       0.01
  copying          :       0.37 (121 #copies) (minimal 0.00, maximal 0.04, average 0.00)
Original Problem   :
  Problem name     : watersbp
  Variables        : 195 (28 binary, 0 integer, 0 implicit integer, 167 continuous)
  Constraints      : 151 initial, 151 maximal
  Objective        : minimize, 3 non-zeros (abs.min = 1, abs.max = 10)
Presolved Problem  :
  Problem name     : t_watersbp
  Variables        : 266 (28 binary, 0 integer, 0 implicit integer, 238 continuous)
  Constraints      : 149 initial, 346 maximal
  Objective        : minimize, 101 non-zeros (abs.min = 1.7, abs.max = 422.148)
  Nonzeros         : 637 constraint, 8 clique table
Presolvers         :   ExecTime  SetupTime  Calls  FixedVars   AggrVars   ChgTypes  ChgBounds   AddHoles    DelCons    AddCons   ChgSides   ChgCoefs
  boundshift       :       0.00       0.00      0          0          0          0          0          0          0          0          0          0
  convertinttobin  :       0.00       0.00      0          0          0          0          0          0          0          0          0          0
  domcol           :       0.00       0.00      2          0          0          0          0          0          0          0          0          0
  dualagg          :       0.00       0.00      0          0          0          0          0          0          0          0          0          0
  dualcomp         :       0.00       0.00      2          0          0          0          0          0          0          0          0          0
  dualinfer        :       0.00       0.00      0          0          0          0          0          0          0          0          0          0
  dualsparsify     :       0.00       0.00      1          0          0          0          0          0          0          0          0          0
  gateextraction   :       0.00       0.00      0          0          0          0          0          0          0          0          0          0
  implics          :       0.00       0.00      5          0          0          0          0          0          0          0          0          0
  inttobinary      :       0.00       0.00      0          0          0          0          0          0          0          0          0          0
  qpkktref         :       0.00       0.00      0          0          0          0          0          0          0          0          0          0
  redvub           :       0.00       0.00      0          0          0          0          0          0          0          0          0          0
  sparsify         :       0.00       0.00      1          0          0          0          0          0          0          0          0          0
  stuffing         :       0.00       0.00      0          0          0          0          0          0          0          0          0          0
  trivial          :       0.00       0.00      8          0          0          0          0          0          0          0          0          0
  tworowbnd        :       0.00       0.00      0          0          0          0          0          0          0          0          0          0
  dualfix          :       0.00       0.00      8          0          0          0          0          0          0          0          0          0
  genvbounds       :       0.00       0.00      0          0          0          0          0          0          0          0          0          0
  probing          :       0.00       0.00      2          0          0          0          2          0          0          0          0          0
  pseudoobj        :       0.00       0.00      0          0          0          0          0          0          0          0          0          0
  symmetry         :       0.00       0.00      1          0          0          0          0          0          0          0          0          0
  vbounds          :       0.00       0.00      1          0          0          0          0          0          0          0          0          0
  SOS1             :       0.00       0.00      3          0          0          0         14          0          0          0          0          0
  varbound         :       0.00       0.00      7          0          0          0          0          0          0          0          2          4
  setppc           :       0.00       0.00      0          0          0          0          0          0          0          0          0          0
  linear           :       0.00       0.00     12          0          2          0        185          0          2          0          0          0
  logicor          :       0.00       0.00      0          0          0          0          0          0          0          0          0          0
  bounddisjunction :       0.00       0.00      0          0          0          0          0          0          0          0          0          0
  nonlinear        :       0.00       0.00     15          0          0          0          1          0          0          0          0         -4
  benders          :       0.00       0.00      0          0          0          0          0          0          0          0          0          0
  components       :       0.00       0.00      1          0          0          0          0          0          0          0          0          0
  root node        :          -          -      -          0          -          -         72          -          -          -          -          -
Constraints        :     Number  MaxNumber  #Separate #Propagate    #EnfoLP    #EnfoRelax  #EnfoPS    #Check   #ResProp    Cutoffs    DomReds       Cuts    Applied      Conss   Children
  benderslp        :          0          0          0          0     672967          0       2304     174725          0          0          0          0          0          0          0
  integral         :          0          0          0          0     343055          0          0     174725          0          0      14997          0          0         27     649358
  SOS1             :         14         14     237917    3011900     672967          0       2304     174720         18         63      50614    1175249          0          0     659824
  varbound         :         84         84         82    2997876          5          0       2254      83638     109812      25505    1340915          0          0          0          0
  setppc           :          0+         4         47    1234298          0          0          0          0       2292         32      37465          0          0          0          0
  linear           :         36+        44         82    2986300        111          0         11       1027      46473      59390    2616835         90         13          0          0
  logicor          :          0+        39         75     219418          0          0          0          0       3099        200      42325          0          0          0          0
  bounddisjunction :          0+       416          0     775717          0          0          0          0       7681       2005     261747          0          0          0          0
  nonlinear        :         15         15    2024108    2924705      14822          0       2304       1025          0      46181    8165172    6020818    4584385          0      16426
  benders          :          0          0          0          0        111          0       2304          7          0          0          0          0          0          0          0
  countsols        :          0          0          0          0        111          0       2304          7          0          0          0          0          0          0          0
  components       :          0          0          0          0          0          0          0          0          0          0          0          0          0          0          0
Constraint Timings :  TotalTime  SetupTime   Separate  Propagate     EnfoLP     EnfoPS     EnfoRelax   Check    ResProp    SB-Prop
  benderslp        :       0.22       0.00       0.00       0.00       0.19       0.00       0.00       0.02       0.00       0.00
  integral         :      10.58       0.00       0.00       0.00      10.54       0.00       0.00       0.04       0.00       0.00
  SOS1             :       7.11       0.00       2.13       0.87       3.44       0.01       0.00       0.65       0.00       0.01
  varbound         :       8.01       0.00       0.00       7.62       0.00       0.02       0.00       0.22       0.04       0.11
  setppc           :       0.62       0.00       0.00       0.61       0.00       0.00       0.00       0.00       0.00       0.01
  linear           :      14.35       0.00       0.00      14.16       0.00       0.00       0.00       0.00       0.07       0.11
  logicor          :       0.53       0.00       0.00       0.53       0.00       0.00       0.00       0.00       0.00       0.00
  bounddisjunction :       4.54       0.00       0.00       4.49       0.00       0.00       0.00       0.00       0.01       0.05
  nonlinear        :     505.28       0.00     411.83      92.41       0.46       0.08       0.00       0.02       0.00       0.48
  benders          :       0.00       0.00       0.00       0.00       0.00       0.00       0.00       0.00       0.00       0.00
  countsols        :       0.00       0.00       0.00       0.00       0.00       0.00       0.00       0.00       0.00       0.00
  components       :       0.28       0.00       0.00       0.28       0.00       0.00       0.00       0.00       0.00       0.00
Propagators        : #Propagate   #ResProp    Cutoffs    DomReds
  dualfix          :          2          0          0          0
  genvbounds       :     717586       5541      11998     445018
  nlobbt           :          0          0          0          0
  obbt             :          2          0          0          2
  probing          :          0          0          0          0
  pseudoobj        :    3290351         47         86     104469
  redcost          :    2975043          0          0          0
  rootredcost      :         20          0          0         17
  symmetry         :          0          0          0          0
  vbounds          :     985106          0          0          0
Propagator Timings :  TotalTime  SetupTime   Presolve  Propagate    ResProp    SB-Prop
  dualfix          :       0.00       0.00       0.00       0.00       0.00       0.00
  genvbounds       :       3.82       0.00       0.00       3.81       0.01       0.00
  nlobbt           :       0.00       0.00       0.00       0.00       0.00       0.00
  obbt             :       0.11       0.00       0.00       0.11       0.00       0.00
  probing          :       0.00       0.00       0.00       0.00       0.00       0.00
  pseudoobj        :      11.45       0.00       0.00      11.45       0.00       0.00
  redcost          :       3.95       0.00       0.00       3.95       0.00       0.00
  rootredcost      :       0.65       0.00       0.00       0.65       0.00       0.00
  symmetry         :       0.37       0.00       0.00       0.37       0.00       0.00
  vbounds          :       0.98       0.00       0.00       0.97       0.00       0.01
Conflict Analysis  :       Time      Calls    Success    DomReds  Conflicts   Literals    Reconvs ReconvLits   Dualrays   Nonzeros   LP Iters   (pool size: [10000,10000])
  propagation      :       0.30      39866      34158          -      35105        3.3      26382        4.1          -          -          -
  infeasible LP    :       0.23       3825       2271          -         48        2.7         15        4.1       2271       16.7          0
  bound exceed. LP :       8.46     118402         13          -          0        0.0          0        0.0          8        1.0       1418
  strong branching :       0.00          0          0          -          0        0.0          0        0.0          -          -          0
  pseudo solution  :       0.00          0          0          -          0        0.0          0        0.0          -          -          -
  applied globally :       0.07          -          -          8      13541        3.6          -          -        122          -          -
  applied locally  :          -          -          -          0       5266        3.0          -          -       2157          -          -
Separators         :   ExecTime  SetupTime      Calls  RootCalls    Cutoffs    DomReds  FoundCuts ViaPoolAdd  DirectAdd    Applied ViaPoolApp  DirectApp      Conss
  cut pool         :       4.43          -     271360        149          -          -     163967     549111          -          -          -          -          -    (maximal pool size:        846)
  aggregation      :      87.50       0.00      78293         82          0          0     154157     517142         68     115622     115601         21          0
  > cmir           :          -          -          -          -          -          -          -     463823         41      96394      96381         13          -
  > flowcover      :          -          -          -          -          -          -          -      48138         11      16566      16562          4          -
  > knapsackcover  :          -          -          -          -          -          -          -       5181         16       2662       2658          4          -
  cgmip            :       0.00       0.00          0          0          0          0          0          0          0          0          0          0          0
  clique           :       0.00       0.00         82         82          0          0          0          0          0          0          0          0          0
  closecuts        :       0.00       0.00          0          0          0          0          0          0          0          0          0          0          0
  convexproj       :       0.00       0.00          0          0          0          0          0          0          0          0          0          0          0
  disjunctive      :       0.00       0.00          6          6          0          0         14          0         14          8          0          8          0
  eccuts           :       0.00       0.00          0          0          0          0          0          0          0          0          0          0          0
  gauge            :       0.00       0.00          0          0          0          0          0          0          0          0          0          0          0
  gomory           :      38.90       0.00      73401         10          0          0       7395      19798         74       4498       4473         25          0
  > gomorymi       :          -          -          -          -          -          -          -      19587         74       4461       4436         25          -
  > strongcg       :          -          -          -          -          -          -          -        211          0         37         37          0          -
  impliedbounds    :       0.50       0.00      78293         82          0          0       1133       2954          0        799        799          0          0
  interminor       :       0.00       0.00          0          0          0          0          0          0          0          0          0          0          0
  intobj           :       0.00       0.00          0          0          0          0          0          0          0          0          0          0          0
  mcf              :       0.00       0.00          1          1          0          0          0          0          0          0          0          0          0
  minor            :       0.05       0.00          0          0          0          0          0          0          0          0          0          0          0
  mixing           :       1.01       0.00      78583         82          0          0        504       4000          0       1113       1113          0          0
  oddcycle         :       0.00       0.00          0          0          0          0          0          0          0          0          0          0          0
  rapidlearning    :       0.03       0.00          0          0          0          0          0          0          0          0          0          0          0
  rlt              :       0.00       0.00         10         10          0          0          0          0          0          0          0          0          0
  zerohalf         :       4.55       0.00      73411         20          0          0        906       5217          7       1805       1802          3          0
Cutselectors       :   ExecTime  SetupTime      Calls  RootCalls   Selected     Forced   Filtered  RootSelec   RootForc   RootFilt 
  hybrid           :       3.35       0.00    1701560         87    5414601      25300    2315418        247          0       1740
Pricers            :   ExecTime  SetupTime      Calls       Vars
  problem variables:       0.00          -          0          0
Branching Rules    :   ExecTime  SetupTime   BranchLP  BranchExt   BranchPS    Cutoffs    DomReds       Cuts      Conss   Children
  allfullstrong    :       0.00       0.00          0          0          0          0          0          0          0          0
  cloud            :       0.00       0.00          0          0          0          0          0          0          0          0
  distribution     :       0.00       0.00          0          0          0          0          0          0          0          0
  fullstrong       :       0.00       0.00          0          0          0          0          0          0          0          0
  inference        :       0.00       0.00          0          0          0          0          0          0          0          0
  leastinf         :       0.00       0.00          0          0          0          0          0          0          0          0
  lookahead        :       0.00       0.00          0          0          0          0          0          0          0          0
  mostinf          :       0.00       0.00          0          0          0          0          0          0          0          0
  multaggr         :       0.00       0.00          0          0          0          0          0          0          0          0
  nodereopt        :       0.00       0.00          0          0          0          0          0          0          0          0
  pscost           :       0.05       0.00          0       2400          0          0          0          0          0       4800
  random           :       0.00       0.00          0          0          0          0          0          0          0          0
  relpscost        :      10.28       0.00     328233          0          0          0      14997          0         27     649358
  vanillafullstrong:       0.00       0.00          0          0          0          0          0          0          0          0
Primal Heuristics  :   ExecTime  SetupTime      Calls      Found       Best
  LP solutions     :       0.04          -          -         15         15
  relax solutions  :       0.00          -          -          0          0
  pseudo solutions :       0.00          -          -          0          0
  strong branching :       0.01          -          -          0          0
  actconsdiving    :       0.00       0.00          0          0          0
  adaptivediving   :       0.77       0.00        216          0          0
  alns             :       7.71       0.00         44          2          2
  bound            :       0.00       0.00          0          0          0
  clique           :       0.00       0.00          1          0          0
  coefdiving       :       0.00       0.00          0          0          0
  completesol      :       0.00       0.00          0          0          0
  conflictdiving   :       5.25       0.00       2137          0          0
  crossover        :      13.24       0.00         21          3          2
  dins             :       0.00       0.00          0          0          0
  distributiondivin:     448.36       0.00       2137          0          0
  dps              :       0.00       0.00          0          0          0
  dualval          :       0.00       0.00          0          0          0
  farkasdiving     :       0.04       0.00          0          0          0
  feaspump         :       0.41       0.00         46          0          0
  fixandinfer      :       0.00       0.00          0          0          0
  fracdiving       :       4.68       0.00       2137          0          0
  gins             :       0.34       0.00          0          0          0
  guideddiving     :       4.75       0.00       2137          0          0
  indicator        :       0.45       0.00          0          0          0
  indicatordiving  :       0.00       0.00          0          0          0
  intdiving        :       0.00       0.00          0          0          0
  intshifting      :       0.25       0.00        159          0          0
  linesearchdiving :       5.43       0.00       2137          0          0
  localbranching   :       0.00       0.00          0          0          0
  locks            :       0.00       0.00          1          0          0
  lpface           :       0.26       0.00          0          0          0
  mpec             :       0.01       0.00          0          0          0
  multistart       :       0.00       0.00          0          0          0
  mutation         :       0.00       0.00          0          0          0
  nlpdiving        :       0.34       0.00          7          0          0
  objpscostdiving  :      10.20       0.00       1069          0          0
  octane           :       0.00       0.00          0          0          0
  ofins            :       0.17       0.00          0          0          0
  oneopt           :       0.32       0.00         20          0          0
  padm             :       0.00       0.00          0          0          0
  proximity        :       0.00       0.00          0          0          0
  pscostdiving     :       6.49       0.00       2137          0          0
  randrounding     :       1.89       0.00     173271          0          0
  rens             :       0.00       0.00          0          0          0
  reoptsols        :       0.00       0.00          0          0          0
  repair           :       0.00       0.00          0          0          0
  rins             :       8.52       0.00         56          0          0
  rootsoldiving    :      10.82       0.00       1069          0          0
  rounding         :       0.82       0.00      21102          0          0
  shiftandpropagate:       0.00       0.00          1          0          0
  shifting         :       1.64       0.00       7041          0          0
  simplerounding   :       0.54       0.00          0          0          0
  subnlp           :       9.68       0.00         64          0          0
  trivial          :       0.00       0.00          2          0          0
  trivialnegation  :       0.00       0.00          0          0          0
  trustregion      :       0.00       0.00          0          0          0
  trysol           :       1.89       0.00          1          1          1
  twoopt           :       0.00       0.00          0          0          0
  undercover       :       0.00       0.00          1          0          0
  vbounds          :       0.00       0.00          0          0          0
  veclendiving     :       5.80       0.00       2137          0          0
  zeroobj          :       0.00       0.00          0          0          0
  zirounding       :       0.26       0.00       1000          0          0
  other solutions  :          -          -          -          0          -
Expressions        :   #IntEval  IntEvalTi   #RevProp  RevPropTi    DomReds    Cutoffs  #Estimate  EstimTime  Branching  #Simplify SimplifyTi Simplified
  pow              :   38465165       4.23    1213160       0.39     930233          0   70561833       3.68      20507        116       0.00          0
  prod             :        480       0.00          0       0.00          0          0   51420000       3.85      30657        124       0.00         32
  sum              :        240       0.00          0       0.00          0          0         15       0.00          0        124       0.00         46
  val              :          0       0.00          0       0.00          0          0          0       0.00          0          0       0.00          0
  var              :   20659876       1.19          0       0.00          0          0          0       0.00          0        394       0.00          0
  varidx           :          0       0.00          0       0.00          0          0          0       0.00          0          0       0.00          0
Nlhdlrs            :    Detects  DetectAll DetectTime   #IntEval  IntEvalTi   #RevProp  RevPropTi    DomReds    Cutoffs   #Enforce   EnfoTime       Cuts  Branching
  soc              :          0          0       0.00          0       0.00          0       0.00          0          0          0       0.00          0          0
  convex           :          0          0       0.00          0       0.00          0       0.00          0          0          0       0.00          0          0
  concave          :          0          0       0.00          0       0.00          0       0.00          0          0          0       0.00          0          0
  signomial        :         28         28       0.00          0       0.00          0       0.00          0          0   94198185       7.15         29          0
  quotient         :          0          0       0.00          0       0.00          0       0.00          0          0          0       0.00          0          0
  quadratic        :         15        240       0.00   17175852      15.95   17030200      34.57    6303120      16949          0       0.00          0          0
  default          :        140       1565       0.00   38465830       6.54    1213428       3.02     930233         11  121981790     108.40    1739563          0
  bilinear         :         30         30       0.00          0       0.00          0       0.00          0          0   50860929       5.53        926          0
  perspective      :         56         56       0.00          0       0.00          0       0.00      21856          6   65740710     250.84    7616240       7752
LP                 :       Time      Calls Iterations  Iter/call   Iter/sec  Time-0-It Calls-0-It    ItLimit
  primal LP        :     292.75     412523        337      30.64       1.15     292.67     412512
  dual LP          :    1630.30    2634933   24818903       9.47   15223.53       3.01      15136
  lex dual LP      :       0.00          0          0       0.00          -
  barrier LP       :       0.00          0          0       0.00          -       0.00          0
  resolve instable :       0.00          0          0       0.00          -
  diving/probing LP:      41.22      48252     998820      20.70   24231.31
  strong branching :       2.62       4293      57797      13.46   22029.51          -          -       1435
    (at root node) :          -          0          0       0.00          -
  conflict analysis:       0.04         91       1418      15.58   33553.39
NLP relaxation     :
  solve time       :       0.32 (7 calls)
  convexity        :  nonconvex (120 linear rows, 0 convex ineq., 0 nonconvex ineq., 15 nonlinear eq. or two-sided ineq.)
NLP Solvers        :  #Problems  ProblemTi    #Solves  SolveTime      #Iter  Time/Iter      #Okay #TimeLimit #IterLimit #LObjLimit #Interrupt  #NumError #EvalError  #OutOfMem #LicenseEr #OtherTerm   #GlobOpt    #LocOpt  #Feasible #LocInfeas #GlobInfea #Unbounded   #Unknown
  ipopt            :         66       3.39         73       5.77       4732       0.00         61          0         12          0          0          0          0          0          0          0          0         50          0          4          0          0         19
B&B Tree           :
  number of runs   :          1
  nodes            :    1082869 (665204 internal, 417665 leaves)
  feasible leaves  :         15
  infeas. leaves   :     120206
  objective leaves :     297444
  nodes (total)    :    1082869 (665204 internal, 417665 leaves)
  nodes left       :     241926
  max depth        :         84
  max depth (total):         84
  backtracks       :     185174 (17.1%)
  early backtracks :          0 (0.0%)
  nodes exc. ref.  :          0 (0.0%)
  delayed cutoffs  :         78
  repropagations   :       2782 (3315 domain reductions, 26 cutoffs)
  avg switch length:       5.63
  switching time   :     400.90
Root Node          :
  First LP value   : +2.25376626383718e+01
  First LP Iters   :         35 (31876.14 Iter/sec)
  First LP Time    :       0.00
  Final Dual Bound : +5.51671023555559e+01
  Final Root Iters :       1200
  Root LP Estimate : +2.22842953921607e+03
Solution           :
  Solutions found  :         21 (20 improvements)
  First Solution   : +1.38936400915215e+03   (in run 1, after 425 nodes, 3.31 seconds, depth 60, found by <alns>)
  Gap First Sol.   :    2350.75 %
  Gap Last Sol.    :    1047.59 %
  Primal Bound     : +9.97384985686222e+02   (in run 1, after 799815 nodes, 2536.54 seconds, depth 49, found by <trysol>)
  Dual Bound       : +8.85756947668562e+01
  Gap              :    1026.03 %
Integrals          :      Total       Avg%
  primal-dual      :  331267.18      92.00
  primal-ref       :          -          - (not evaluated)
  dual-ref         :          -          - (not evaluated)
